c numero: 4
c nombre: n-20-d-0.3
c densidad: 0.3
p edges 20 60
e 1 2
e 1 3
e 1 6
e 1 7
e 1 20
e 2 8
e 2 13
e 3 4
e 3 9
e 3 12
e 3 14
e 3 19
e 4 6
e 4 7
e 4 9
e 4 15
e 5 6
e 5 7
e 5 13
e 5 15
e 5 20
e 6 7
e 6 8
e 6 9
e 6 11
e 6 12
e 6 13
e 6 15
e 6 16
e 6 17
e 7 8
e 7 10
e 7 14
e 7 15
e 7 18
e 7 19
e 8 13
e 8 15
e 9 11
e 9 19
e 10 11
e 10 13
e 10 14
e 10 15
e 10 16
e 10 17
e 10 19
e 11 13
e 11 16
e 11 18
e 12 18
e 12 19
e 13 15
e 13 18
e 14 19
e 15 17
e 15 19
e 16 17
e 18 20
e 19 20
